DATASET = "thpack1";
INSTANCE = "072";

WIDTH = 233;
HEIGHT = 220;
LENGTH = 587;

NO_OF_SHAPES = 3;
size = [|
  96,95,68 |
  69,61,35 |
  107,70,55 |
|];

verticality = [|
  1,1,1 |
  1,1,1 |
  1,1,1 |
|];

box_count = [
  28,
  24,
  22,
];
